\ENCODING=ISO-8859-1
\Problem name: 

Minimize
 obj1: 66 y_2,3_#0 + 253.3 y_2,4_#1 + 229.6 y_2,5_#2 + 312.7 y_2,6_#3
       + 224 y_2,7_#4 + 166.5 y_2,8_#5 + 138.7 y_2,9_#6 + 144.3 y_2,10_#7
       + 98.2 y_2,11_#8 + 62.9 y_2,12_#9 + 116.5 y_2,13_#10 + 84.5 y_2,14_#11
       + 37.4 y_2,15_#12 + 48.7 y_2,16_#13 + 93.4 y_2,17_#14
       + 2074.1 y_2,18_#15 + 285.7 y_3,4_#16 + 262 y_3,5_#17 + 346.7 y_3,6_#18
       + 323.9 y_3,7_#19 + 288.5 y_3,8_#20 + 242.7 y_3,9_#21 + 268.2 y_3,10_#22
       + 296.1 y_3,11_#23 + 246.3 y_3,12_#24 + 289.8 y_3,13_#25
       + 257.8 y_3,14_#26 + 210.7 y_3,15_#27 + 191.7 y_3,16_#28
       + 324.7 y_3,17_#29 + 2173.8 y_3,18_#30 + 368.6 y_4,3_#31
       + 54.6 y_4,5_#32 + 177.4 y_4,6_#33 + 76 y_4,7_#34 + 89.1 y_4,8_#35
       + 215 y_4,9_#36 + 240.5 y_4,10_#37 + 317.1 y_4,11_#38 + 308.2 y_4,12_#39
       + 292.4 y_4,13_#40 + 260.4 y_4,14_#41 + 210.5 y_4,15_#42
       + 229.8 y_4,16_#43 + 334.9 y_4,17_#44 + 2218.8 y_4,18_#45
       + 315.2 y_5,3_#46 + 54.6 y_5,4_#47 + 84.2 y_5,6_#48 + 63.4 y_5,7_#49
       + 96.7 y_5,8_#50 + 222.6 y_5,9_#51 + 248.1 y_5,10_#52 + 324.7 y_5,11_#53
       + 315.8 y_5,12_#54 + 300 y_5,13_#55 + 268 y_5,14_#56 + 218.1 y_5,15_#57
       + 237.4 y_5,16_#58 + 342.5 y_5,17_#59 + 2190.7 y_5,18_#60
       + 277.6 y_6,3_#61 + 90.1 y_6,4_#62 + 54.9 y_6,5_#63 + 128.3 y_6,7_#64
       + 141.4 y_6,8_#65 + 277.1 y_6,9_#66 + 302.6 y_6,10_#67
       + 369.4 y_6,11_#68 + 360.5 y_6,12_#69 + 344.7 y_6,13_#70
       + 312.7 y_6,14_#71 + 262.8 y_6,15_#72 + 282.1 y_6,16_#73
       + 424.3 y_6,17_#74 + 2262.2 y_6,18_#75 + 354.7 y_7,3_#76
       + 95.5 y_7,4_#77 + 65.1 y_7,5_#78 + 158.2 y_7,6_#79 + 13 y_7,8_#80
       + 201.1 y_7,9_#81 + 226.6 y_7,10_#82 + 303.2 y_7,11_#83
       + 294.3 y_7,12_#84 + 278.5 y_7,13_#85 + 246.5 y_7,14_#86
       + 196.6 y_7,15_#87 + 215.9 y_7,16_#88 + 321 y_7,17_#89
       + 2182.8 y_7,18_#90 + 294 y_8,3_#91 + 95.8 y_8,4_#92 + 83 y_8,5_#93
       + 215.4 y_8,6_#94 + 13 y_8,7_#95 + 140.4 y_8,9_#96 + 165.9 y_8,10_#97
       + 227.9 y_8,11_#98 + 233.6 y_8,12_#99 + 217.8 y_8,13_#100
       + 185.8 y_8,14_#101 + 135.9 y_8,15_#102 + 155.2 y_8,16_#103
       + 245.7 y_8,17_#104 + 2149.8 y_8,18_#105 + 243.6 y_9,3_#106
       + 276.6 y_9,4_#107 + 207.7 y_9,5_#108 + 337.6 y_9,6_#109
       + 173.3 y_9,7_#110 + 115.8 y_9,8_#111 + 82.4 y_9,10_#112
       + 163.7 y_9,11_#113 + 160.4 y_9,12_#114 + 143.4 y_9,13_#115
       + 153.4 y_9,14_#116 + 103.5 y_9,15_#117 + 122.8 y_9,16_#118
       + 204.1 y_9,17_#119 + 2238.4 y_9,18_#120 + 286.1 y_10,3_#121
       + 319.1 y_10,4_#122 + 250.2 y_10,5_#123 + 380.1 y_10,6_#124
       + 215.8 y_10,7_#125 + 158.3 y_10,8_#126 + 74.1 y_10,9_#127
       + 24.9 y_10,11_#128 + 53.9 y_10,12_#129 + 28.3 y_10,13_#130
       + 72.4 y_10,14_#131 + 132 y_10,15_#132 + 151.3 y_10,16_#133
       + 136.4 y_10,17_#134 + 2170.7 y_10,18_#135 + 291.9 y_11,3_#136
       + 398.8 y_11,4_#137 + 329.9 y_11,5_#138 + 459.8 y_11,6_#139
       + 295.5 y_11,7_#140 + 238 y_11,8_#141 + 153.8 y_11,9_#142
       + 24.9 y_11,10_#143 + 13 y_11,12_#144 + 54.1 y_11,13_#145
       + 113 y_11,14_#146 + 178 y_11,15_#147 + 198.1 y_11,16_#148
       + 123.4 y_11,17_#149 + 2162.9 y_11,18_#150 + 217.2 y_12,3_#151
       + 322.7 y_12,4_#152 + 309.9 y_12,5_#153 + 450.3 y_12,6_#154
       + 275.5 y_12,7_#155 + 218 y_12,8_#156 + 157.8 y_12,9_#157
       + 44.4 y_12,10_#158 + 13 y_12,11_#159 + 12 y_12,13_#160
       + 34.4 y_12,14_#161 + 103.3 y_12,15_#162 + 123.4 y_12,16_#163
       + 156.1 y_12,17_#164 + 2158.5 y_12,18_#165 + 290.4 y_13,3_#166
       + 296.9 y_13,4_#167 + 284.1 y_13,5_#168 + 432.2 y_13,6_#169
       + 249.7 y_13,7_#170 + 192.2 y_13,8_#171 + 132.2 y_13,9_#172
       + 18.8 y_13,10_#173 + 68.9 y_13,11_#174 + 12 y_13,12_#175
       + 39.5 y_13,14_#176 + 80.3 y_13,15_#177 + 99.6 y_13,16_#178
       + 227.1 y_13,17_#179 + 2231.4 y_13,18_#180 + 218.6 y_14,3_#181
       + 263.2 y_14,4_#182 + 250.4 y_14,5_#183 + 398.5 y_14,6_#184
       + 216 y_14,7_#185 + 158.5 y_14,8_#186 + 130.7 y_14,9_#187
       + 62.9 y_14,10_#188 + 103.3 y_14,11_#189 + 38.4 y_14,12_#190
       + 29 y_14,13_#191 + 46.6 y_14,15_#192 + 65.9 y_14,16_#193
       + 216.3 y_14,17_#194 + 2197 y_14,18_#195 + 171.9 y_15,3_#196
       + 233.7 y_15,4_#197 + 220.9 y_15,5_#198 + 369 y_15,6_#199
       + 186.5 y_15,7_#200 + 129 y_15,8_#201 + 101.2 y_15,9_#202
       + 126.7 y_15,10_#203 + 159.7 y_15,11_#204 + 94.8 y_15,12_#205
       + 79 y_15,13_#206 + 47 y_15,14_#207 + 19.2 y_15,16_#208
       + 190.5 y_15,17_#209 + 2171.2 y_15,18_#210 + 150 y_16,3_#211
       + 337 y_16,4_#212 + 258.1 y_16,5_#213 + 398 y_16,6_#214
       + 223.7 y_16,7_#215 + 166.2 y_16,8_#216 + 138.4 y_16,9_#217
       + 163.9 y_16,10_#218 + 181.4 y_16,11_#219 + 131.3 y_16,12_#220
       + 116.2 y_16,13_#221 + 84.2 y_16,14_#222 + 18.6 y_16,15_#223
       + 208.5 y_16,17_#224 + 2189.2 y_16,18_#225 + 285.9 y_17,3_#226
       + 356.4 y_17,4_#227 + 343.6 y_17,5_#228 + 476 y_17,6_#229
       + 326.3 y_17,7_#230 + 240.3 y_17,8_#231 + 184.6 y_17,9_#232
       + 147.9 y_17,10_#233 + 122.3 y_17,11_#234 + 145.5 y_17,12_#235
       + 209.6 y_17,13_#236 + 194.7 y_17,14_#237 + 172 y_17,15_#238
       + 192.1 y_17,16_#239 + 2086.4 y_17,18_#240 + 0 w_0#241 + 0 w_1#242
       + 0 w_2#243 + 0 w_3#244 + 0 w_4#245 + 0 w_5#246 + 0 w_6#247 + 0 w_7#248
       + 0 w_8#249 + 0 w_9#250 + 0 w_10#251 + 0 w_11#252 + 0 w_12#253
       + 0 w_13#254 + 0 w_14#255 + 0 w_15#256 + 0 w_16#257 + 0 w_17#258
       + 0 w_18#259 + 0 _e_0#260 + 0 _e_1#261 + 0 _e_2#262 + 0 _e_3#263
       + 0 _e_4#264 + 0 _e_5#265 + 0 _e_6#266 + 0 _e_7#267 + 0 _e_8#268
       + 0 _e_9#269 + 0 _e_10#270 + 0 _e_11#271 + 0 _e_12#272 + 0 _e_13#273
       + 0 _e_14#274 + 0 _e_15#275 + 0 _e_16#276 + 0 _e_17#277 + 0 t_0#278
       + 0 t_1#279 + 0 t_2#280 + 0 t_3#281 + 0 t_4#282 + 0 t_5#283 + 0 t_6#284
       + 0 t_7#285 + 0 t_8#286 + 0 t_9#287 + 0 t_10#288 + 0 t_11#289
       + 0 t_12#290 + 0 t_13#291 + 0 t_14#292 + 0 t_15#293 + 0 t_16#294
       + 0 t_17#295 + 2107.1
Subject To
 c1:  y_2,3_#0 + y_2,4_#1 + y_2,5_#2 + y_2,6_#3 + y_2,7_#4 + y_2,8_#5
      + y_2,9_#6 + y_2,10_#7 + y_2,11_#8 + y_2,12_#9 + y_2,13_#10 + y_2,14_#11
      + y_2,15_#12 + y_2,16_#13 + y_2,17_#14 + y_2,18_#15  = 1
 c2:  y_3,4_#16 + y_3,5_#17 + y_3,6_#18 + y_3,7_#19 + y_3,8_#20 + y_3,9_#21
      + y_3,10_#22 + y_3,11_#23 + y_3,12_#24 + y_3,13_#25 + y_3,14_#26
      + y_3,15_#27 + y_3,16_#28 + y_3,17_#29 + y_3,18_#30  = 1
 c3:  y_4,3_#31 + y_4,5_#32 + y_4,6_#33 + y_4,7_#34 + y_4,8_#35 + y_4,9_#36
      + y_4,10_#37 + y_4,11_#38 + y_4,12_#39 + y_4,13_#40 + y_4,14_#41
      + y_4,15_#42 + y_4,16_#43 + y_4,17_#44 + y_4,18_#45  = 1
 c4:  y_5,3_#46 + y_5,4_#47 + y_5,6_#48 + y_5,7_#49 + y_5,8_#50 + y_5,9_#51
      + y_5,10_#52 + y_5,11_#53 + y_5,12_#54 + y_5,13_#55 + y_5,14_#56
      + y_5,15_#57 + y_5,16_#58 + y_5,17_#59 + y_5,18_#60  = 1
 c5:  y_6,3_#61 + y_6,4_#62 + y_6,5_#63 + y_6,7_#64 + y_6,8_#65 + y_6,9_#66
      + y_6,10_#67 + y_6,11_#68 + y_6,12_#69 + y_6,13_#70 + y_6,14_#71
      + y_6,15_#72 + y_6,16_#73 + y_6,17_#74 + y_6,18_#75  = 1
 c6:  y_7,3_#76 + y_7,4_#77 + y_7,5_#78 + y_7,6_#79 + y_7,8_#80 + y_7,9_#81
      + y_7,10_#82 + y_7,11_#83 + y_7,12_#84 + y_7,13_#85 + y_7,14_#86
      + y_7,15_#87 + y_7,16_#88 + y_7,17_#89 + y_7,18_#90  = 1
 c7:  y_8,3_#91 + y_8,4_#92 + y_8,5_#93 + y_8,6_#94 + y_8,7_#95 + y_8,9_#96
      + y_8,10_#97 + y_8,11_#98 + y_8,12_#99 + y_8,13_#100 + y_8,14_#101
      + y_8,15_#102 + y_8,16_#103 + y_8,17_#104 + y_8,18_#105  = 1
 c8:  y_9,3_#106 + y_9,4_#107 + y_9,5_#108 + y_9,6_#109 + y_9,7_#110
      + y_9,8_#111 + y_9,10_#112 + y_9,11_#113 + y_9,12_#114 + y_9,13_#115
      + y_9,14_#116 + y_9,15_#117 + y_9,16_#118 + y_9,17_#119 + y_9,18_#120
       = 1
 c9:  y_10,3_#121 + y_10,4_#122 + y_10,5_#123 + y_10,6_#124 + y_10,7_#125
      + y_10,8_#126 + y_10,9_#127 + y_10,11_#128 + y_10,12_#129 + y_10,13_#130
      + y_10,14_#131 + y_10,15_#132 + y_10,16_#133 + y_10,17_#134
      + y_10,18_#135  = 1
 c10: y_11,3_#136 + y_11,4_#137 + y_11,5_#138 + y_11,6_#139 + y_11,7_#140
      + y_11,8_#141 + y_11,9_#142 + y_11,10_#143 + y_11,12_#144 + y_11,13_#145
      + y_11,14_#146 + y_11,15_#147 + y_11,16_#148 + y_11,17_#149
      + y_11,18_#150  = 1
 c11: y_12,3_#151 + y_12,4_#152 + y_12,5_#153 + y_12,6_#154 + y_12,7_#155
      + y_12,8_#156 + y_12,9_#157 + y_12,10_#158 + y_12,11_#159 + y_12,13_#160
      + y_12,14_#161 + y_12,15_#162 + y_12,16_#163 + y_12,17_#164
      + y_12,18_#165  = 1
 c12: y_13,3_#166 + y_13,4_#167 + y_13,5_#168 + y_13,6_#169 + y_13,7_#170
      + y_13,8_#171 + y_13,9_#172 + y_13,10_#173 + y_13,11_#174 + y_13,12_#175
      + y_13,14_#176 + y_13,15_#177 + y_13,16_#178 + y_13,17_#179
      + y_13,18_#180  = 1
 c13: y_14,3_#181 + y_14,4_#182 + y_14,5_#183 + y_14,6_#184 + y_14,7_#185
      + y_14,8_#186 + y_14,9_#187 + y_14,10_#188 + y_14,11_#189 + y_14,12_#190
      + y_14,13_#191 + y_14,15_#192 + y_14,16_#193 + y_14,17_#194
      + y_14,18_#195  = 1
 c14: y_15,3_#196 + y_15,4_#197 + y_15,5_#198 + y_15,6_#199 + y_15,7_#200
      + y_15,8_#201 + y_15,9_#202 + y_15,10_#203 + y_15,11_#204 + y_15,12_#205
      + y_15,13_#206 + y_15,14_#207 + y_15,16_#208 + y_15,17_#209
      + y_15,18_#210  = 1
 c15: y_16,3_#211 + y_16,4_#212 + y_16,5_#213 + y_16,6_#214 + y_16,7_#215
      + y_16,8_#216 + y_16,9_#217 + y_16,10_#218 + y_16,11_#219 + y_16,12_#220
      + y_16,13_#221 + y_16,14_#222 + y_16,15_#223 + y_16,17_#224
      + y_16,18_#225  = 1
 c16: y_17,3_#226 + y_17,4_#227 + y_17,5_#228 + y_17,6_#229 + y_17,7_#230
      + y_17,8_#231 + y_17,9_#232 + y_17,10_#233 + y_17,11_#234 + y_17,12_#235
      + y_17,13_#236 + y_17,14_#237 + y_17,15_#238 + y_17,16_#239
      + y_17,18_#240  = 1
 c17: y_2,3_#0 + y_4,3_#31 + y_5,3_#46 + y_6,3_#61 + y_7,3_#76 + y_8,3_#91
      + y_9,3_#106 + y_10,3_#121 + y_11,3_#136 + y_12,3_#151 + y_13,3_#166
      + y_14,3_#181 + y_15,3_#196 + y_16,3_#211 + y_17,3_#226  = 1
 c18: y_2,4_#1 + y_3,4_#16 + y_5,4_#47 + y_6,4_#62 + y_7,4_#77 + y_8,4_#92
      + y_9,4_#107 + y_10,4_#122 + y_11,4_#137 + y_12,4_#152 + y_13,4_#167
      + y_14,4_#182 + y_15,4_#197 + y_16,4_#212 + y_17,4_#227  = 1
 c19: y_2,5_#2 + y_3,5_#17 + y_4,5_#32 + y_6,5_#63 + y_7,5_#78 + y_8,5_#93
      + y_9,5_#108 + y_10,5_#123 + y_11,5_#138 + y_12,5_#153 + y_13,5_#168
      + y_14,5_#183 + y_15,5_#198 + y_16,5_#213 + y_17,5_#228  = 1
 c20: y_2,6_#3 + y_3,6_#18 + y_4,6_#33 + y_5,6_#48 + y_7,6_#79 + y_8,6_#94
      + y_9,6_#109 + y_10,6_#124 + y_11,6_#139 + y_12,6_#154 + y_13,6_#169
      + y_14,6_#184 + y_15,6_#199 + y_16,6_#214 + y_17,6_#229  = 1
 c21: y_2,7_#4 + y_3,7_#19 + y_4,7_#34 + y_5,7_#49 + y_6,7_#64 + y_8,7_#95
      + y_9,7_#110 + y_10,7_#125 + y_11,7_#140 + y_12,7_#155 + y_13,7_#170
      + y_14,7_#185 + y_15,7_#200 + y_16,7_#215 + y_17,7_#230  = 1
 c22: y_2,8_#5 + y_3,8_#20 + y_4,8_#35 + y_5,8_#50 + y_6,8_#65 + y_7,8_#80
      + y_9,8_#111 + y_10,8_#126 + y_11,8_#141 + y_12,8_#156 + y_13,8_#171
      + y_14,8_#186 + y_15,8_#201 + y_16,8_#216 + y_17,8_#231  = 1
 c23: y_2,9_#6 + y_3,9_#21 + y_4,9_#36 + y_5,9_#51 + y_6,9_#66 + y_7,9_#81
      + y_8,9_#96 + y_10,9_#127 + y_11,9_#142 + y_12,9_#157 + y_13,9_#172
      + y_14,9_#187 + y_15,9_#202 + y_16,9_#217 + y_17,9_#232  = 1
 c24: y_2,10_#7 + y_3,10_#22 + y_4,10_#37 + y_5,10_#52 + y_6,10_#67
      + y_7,10_#82 + y_8,10_#97 + y_9,10_#112 + y_11,10_#143 + y_12,10_#158
      + y_13,10_#173 + y_14,10_#188 + y_15,10_#203 + y_16,10_#218
      + y_17,10_#233  = 1
 c25: y_2,11_#8 + y_3,11_#23 + y_4,11_#38 + y_5,11_#53 + y_6,11_#68
      + y_7,11_#83 + y_8,11_#98 + y_9,11_#113 + y_10,11_#128 + y_12,11_#159
      + y_13,11_#174 + y_14,11_#189 + y_15,11_#204 + y_16,11_#219
      + y_17,11_#234  = 1
 c26: y_2,12_#9 + y_3,12_#24 + y_4,12_#39 + y_5,12_#54 + y_6,12_#69
      + y_7,12_#84 + y_8,12_#99 + y_9,12_#114 + y_10,12_#129 + y_11,12_#144
      + y_13,12_#175 + y_14,12_#190 + y_15,12_#205 + y_16,12_#220
      + y_17,12_#235  = 1
 c27: y_2,13_#10 + y_3,13_#25 + y_4,13_#40 + y_5,13_#55 + y_6,13_#70
      + y_7,13_#85 + y_8,13_#100 + y_9,13_#115 + y_10,13_#130 + y_11,13_#145
      + y_12,13_#160 + y_14,13_#191 + y_15,13_#206 + y_16,13_#221
      + y_17,13_#236  = 1
 c28: y_2,14_#11 + y_3,14_#26 + y_4,14_#41 + y_5,14_#56 + y_6,14_#71
      + y_7,14_#86 + y_8,14_#101 + y_9,14_#116 + y_10,14_#131 + y_11,14_#146
      + y_12,14_#161 + y_13,14_#176 + y_15,14_#207 + y_16,14_#222
      + y_17,14_#237  = 1
 c29: y_2,15_#12 + y_3,15_#27 + y_4,15_#42 + y_5,15_#57 + y_6,15_#72
      + y_7,15_#87 + y_8,15_#102 + y_9,15_#117 + y_10,15_#132 + y_11,15_#147
      + y_12,15_#162 + y_13,15_#177 + y_14,15_#192 + y_16,15_#223
      + y_17,15_#238  = 1
 c30: y_2,16_#13 + y_3,16_#28 + y_4,16_#43 + y_5,16_#58 + y_6,16_#73
      + y_7,16_#88 + y_8,16_#103 + y_9,16_#118 + y_10,16_#133 + y_11,16_#148
      + y_12,16_#163 + y_13,16_#178 + y_14,16_#193 + y_15,16_#208
      + y_17,16_#239  = 1
 c31: y_2,17_#14 + y_3,17_#29 + y_4,17_#44 + y_5,17_#59 + y_6,17_#74
      + y_7,17_#89 + y_8,17_#104 + y_9,17_#119 + y_10,17_#134 + y_11,17_#149
      + y_12,17_#164 + y_13,17_#179 + y_14,17_#194 + y_15,17_#209
      + y_16,17_#224  = 1
 c32: y_2,18_#15 + y_3,18_#30 + y_4,18_#45 + y_5,18_#60 + y_6,18_#75
      + y_7,18_#90 + y_8,18_#105 + y_9,18_#120 + y_10,18_#135 + y_11,18_#150
      + y_12,18_#165 + y_13,18_#180 + y_14,18_#195 + y_15,18_#210
      + y_16,18_#225 + y_17,18_#240  = 1
 c33: y_4,5_#32 + y_4,6_#33 + y_5,4_#47 + y_5,6_#48 + y_6,4_#62 + y_6,5_#63
      <= 2
 c34: y_7,8_#80 + y_8,7_#95 <= 1
 c35: y_12,13_#160 + y_12,14_#161 + y_13,12_#175 + y_13,14_#176 + y_14,12_#190
      + y_14,13_#191 <= 2
 c36: y_15,16_#208 + y_16,15_#223 <= 1
 c37: y_5,6_#48 <= 1
 c38: y_5,6_#48 + y_6,5_#63 <= 1
 c39: y_9,10_#112 + y_10,9_#127 <= 1
 c40: y_4,5_#32 + y_4,6_#33 + y_4,7_#34 + y_4,8_#35 + y_5,4_#47 + y_5,6_#48
      + y_5,7_#49 + y_5,8_#50 + y_6,4_#62 + y_6,5_#63 + y_6,7_#64 + y_6,8_#65
      + y_7,4_#77 + y_7,5_#78 + y_7,6_#79 + y_7,8_#80 + y_8,4_#92 + y_8,5_#93
      + y_8,6_#94 + y_8,7_#95 <= 4
 c41: y_11,12_#144 + y_12,11_#159 <= 1
 c42: y_4,5_#32 + y_4,6_#33 + y_4,7_#34 + y_5,4_#47 + y_5,6_#48 + y_5,7_#49
      + y_6,4_#62 + y_6,5_#63 + y_6,7_#64 + y_7,4_#77 + y_7,5_#78 + y_7,6_#79
      <= 3
 c43: y_10,11_#128 + y_10,12_#129 + y_10,13_#130 + y_11,10_#143 + y_11,12_#144
      + y_11,13_#145 + y_12,10_#158 + y_12,11_#159 + y_12,13_#160
      + y_13,10_#173 + y_13,11_#174 + y_13,12_#175 <= 3
 c44: y_14,15_#192 + y_15,14_#207 <= 1
 c45: y_12,13_#160 + y_13,12_#175 <= 1
 c46: y_14,15_#192 + y_14,16_#193 + y_15,14_#207 + y_15,16_#208 + y_16,14_#222
      + y_16,15_#223 <= 2
 c47: y_10,11_#128 + y_10,12_#129 + y_10,13_#130 + y_10,17_#134 + y_10,18_#135
      + y_11,10_#143 + y_11,12_#144 + y_11,13_#145 + y_11,17_#149
      + y_11,18_#150 + y_12,10_#158 + y_12,11_#159 + y_12,13_#160
      + y_12,17_#164 + y_12,18_#165 + y_13,10_#173 + y_13,11_#174
      + y_13,12_#175 + y_13,17_#179 + y_13,18_#180 + y_17,10_#233
      + y_17,11_#234 + y_17,12_#235 + y_17,13_#236 + y_17,18_#240 <= 4
 c48: y_11,17_#149 + y_11,18_#150 + y_17,11_#234 + y_17,18_#240 <= 1
 c49: y_11,12_#144 + y_11,17_#149 + y_11,18_#150 + y_12,11_#159 + y_12,17_#164
      + y_12,18_#165 + y_17,11_#234 + y_17,12_#235 + y_17,18_#240 <= 2
 c50: y_10,11_#128 + y_10,12_#129 + y_10,13_#130 + y_10,14_#131 + y_10,17_#134
      + y_10,18_#135 + y_11,10_#143 + y_11,12_#144 + y_11,13_#145
      + y_11,14_#146 + y_11,17_#149 + y_11,18_#150 + y_12,10_#158
      + y_12,11_#159 + y_12,13_#160 + y_12,14_#161 + y_12,17_#164
      + y_12,18_#165 + y_13,10_#173 + y_13,11_#174 + y_13,12_#175
      + y_13,14_#176 + y_13,17_#179 + y_13,18_#180 + y_14,10_#188
      + y_14,11_#189 + y_14,12_#190 + y_14,13_#191 + y_14,17_#194
      + y_14,18_#195 + y_17,10_#233 + y_17,11_#234 + y_17,12_#235
      + y_17,13_#236 + y_17,14_#237 + y_17,18_#240 <= 5
 c51: y_10,11_#128 + y_10,12_#129 + y_10,13_#130 + y_10,14_#131 + y_10,15_#132
      + y_10,17_#134 + y_10,18_#135 + y_11,10_#143 + y_11,12_#144
      + y_11,13_#145 + y_11,14_#146 + y_11,15_#147 + y_11,17_#149
      + y_11,18_#150 + y_12,10_#158 + y_12,11_#159 + y_12,13_#160
      + y_12,14_#161 + y_12,15_#162 + y_12,17_#164 + y_12,18_#165
      + y_13,10_#173 + y_13,11_#174 + y_13,12_#175 + y_13,14_#176
      + y_13,15_#177 + y_13,17_#179 + y_13,18_#180 + y_14,10_#188
      + y_14,11_#189 + y_14,12_#190 + y_14,13_#191 + y_14,15_#192
      + y_14,17_#194 + y_14,18_#195 + y_15,10_#203 + y_15,11_#204
      + y_15,12_#205 + y_15,13_#206 + y_15,14_#207 + y_15,17_#209
      + y_15,18_#210 + y_17,10_#233 + y_17,11_#234 + y_17,12_#235
      + y_17,13_#236 + y_17,14_#237 + y_17,15_#238 + y_17,18_#240 <= 6
 c52: y_10,11_#128 + y_10,12_#129 + y_10,13_#130 + y_10,14_#131 + y_10,15_#132
      + y_10,16_#133 + y_10,17_#134 + y_10,18_#135 + y_11,10_#143
      + y_11,12_#144 + y_11,13_#145 + y_11,14_#146 + y_11,15_#147
      + y_11,16_#148 + y_11,17_#149 + y_11,18_#150 + y_12,10_#158
      + y_12,11_#159 + y_12,13_#160 + y_12,14_#161 + y_12,15_#162
      + y_12,16_#163 + y_12,17_#164 + y_12,18_#165 + y_13,10_#173
      + y_13,11_#174 + y_13,12_#175 + y_13,14_#176 + y_13,15_#177
      + y_13,16_#178 + y_13,17_#179 + y_13,18_#180 + y_14,10_#188
      + y_14,11_#189 + y_14,12_#190 + y_14,13_#191 + y_14,15_#192
      + y_14,16_#193 + y_14,17_#194 + y_14,18_#195 + y_15,10_#203
      + y_15,11_#204 + y_15,12_#205 + y_15,13_#206 + y_15,14_#207
      + y_15,16_#208 + y_15,17_#209 + y_15,18_#210 + y_16,10_#218
      + y_16,11_#219 + y_16,12_#220 + y_16,13_#221 + y_16,14_#222
      + y_16,15_#223 + y_16,17_#224 + y_16,18_#225 + y_17,10_#233
      + y_17,11_#234 + y_17,12_#235 + y_17,13_#236 + y_17,14_#237
      + y_17,15_#238 + y_17,16_#239 + y_17,18_#240 <= 7
 c53: y_2,17_#14 + y_2,18_#15 + y_17,18_#240 <= 1
 c54: y_3,4_#16 + y_3,5_#17 + y_3,6_#18 + y_3,7_#19 + y_3,8_#20 + y_3,9_#21
      + y_3,10_#22 + y_3,11_#23 + y_3,12_#24 + y_3,13_#25 + y_3,14_#26
      + y_3,15_#27 + y_3,16_#28 + y_4,3_#31 + y_4,5_#32 + y_4,6_#33 + y_4,7_#34
      + y_4,8_#35 + y_4,9_#36 + y_4,10_#37 + y_4,11_#38 + y_4,12_#39
      + y_4,13_#40 + y_4,14_#41 + y_4,15_#42 + y_4,16_#43 + y_5,3_#46
      + y_5,4_#47 + y_5,6_#48 + y_5,7_#49 + y_5,8_#50 + y_5,9_#51 + y_5,10_#52
      + y_5,11_#53 + y_5,12_#54 + y_5,13_#55 + y_5,14_#56 + y_5,15_#57
      + y_5,16_#58 + y_6,3_#61 + y_6,4_#62 + y_6,5_#63 + y_6,7_#64 + y_6,8_#65
      + y_6,9_#66 + y_6,10_#67 + y_6,11_#68 + y_6,12_#69 + y_6,13_#70
      + y_6,14_#71 + y_6,15_#72 + y_6,16_#73 + y_7,3_#76 + y_7,4_#77
      + y_7,5_#78 + y_7,6_#79 + y_7,8_#80 + y_7,9_#81 + y_7,10_#82 + y_7,11_#83
      + y_7,12_#84 + y_7,13_#85 + y_7,14_#86 + y_7,15_#87 + y_7,16_#88
      + y_8,3_#91 + y_8,4_#92 + y_8,5_#93 + y_8,6_#94 + y_8,7_#95 + y_8,9_#96
      + y_8,10_#97 + y_8,11_#98 + y_8,12_#99 + y_8,13_#100 + y_8,14_#101
      + y_8,15_#102 + y_8,16_#103 + y_9,3_#106 + y_9,4_#107 + y_9,5_#108
      + y_9,6_#109 + y_9,7_#110 + y_9,8_#111 + y_9,10_#112 + y_9,11_#113
      + y_9,12_#114 + y_9,13_#115 + y_9,14_#116 + y_9,15_#117 + y_9,16_#118
      + y_10,3_#121 + y_10,4_#122 + y_10,5_#123 + y_10,6_#124 + y_10,7_#125
      + y_10,8_#126 + y_10,9_#127 + y_10,11_#128 + y_10,12_#129 + y_10,13_#130
      + y_10,14_#131 + y_10,15_#132 + y_10,16_#133 + y_11,3_#136 + y_11,4_#137
      + y_11,5_#138 + y_11,6_#139 + y_11,7_#140 + y_11,8_#141 + y_11,9_#142
      + y_11,10_#143 + y_11,12_#144 + y_11,13_#145 + y_11,14_#146
      + y_11,15_#147 + y_11,16_#148 + y_12,3_#151 + y_12,4_#152 + y_12,5_#153
      + y_12,6_#154 + y_12,7_#155 + y_12,8_#156 + y_12,9_#157 + y_12,10_#158
      + y_12,11_#159 + y_12,13_#160 + y_12,14_#161 + y_12,15_#162
      + y_12,16_#163 + y_13,3_#166 + y_13,4_#167 + y_13,5_#168 + y_13,6_#169
      + y_13,7_#170 + y_13,8_#171 + y_13,9_#172 + y_13,10_#173 + y_13,11_#174
      + y_13,12_#175 + y_13,14_#176 + y_13,15_#177 + y_13,16_#178 + y_14,3_#181
      + y_14,4_#182 + y_14,5_#183 + y_14,6_#184 + y_14,7_#185 + y_14,8_#186
      + y_14,9_#187 + y_14,10_#188 + y_14,11_#189 + y_14,12_#190 + y_14,13_#191
      + y_14,15_#192 + y_14,16_#193 + y_15,3_#196 + y_15,4_#197 + y_15,5_#198
      + y_15,6_#199 + y_15,7_#200 + y_15,8_#201 + y_15,9_#202 + y_15,10_#203
      + y_15,11_#204 + y_15,12_#205 + y_15,13_#206 + y_15,14_#207
      + y_15,16_#208 + y_16,3_#211 + y_16,4_#212 + y_16,5_#213 + y_16,6_#214
      + y_16,7_#215 + y_16,8_#216 + y_16,9_#217 + y_16,10_#218 + y_16,11_#219
      + y_16,12_#220 + y_16,13_#221 + y_16,14_#222 + y_16,15_#223 <= 13
 c55: - y_2,5_#2 - y_3,5_#17 - y_4,3_#31 - y_4,8_#35 - y_4,9_#36 - y_4,10_#37
      - y_4,11_#38 - y_4,12_#39 - y_4,13_#40 - y_4,14_#41 - y_4,15_#42
      - y_4,16_#43 - y_4,17_#44 - y_4,18_#45 + y_5,4_#47 + y_5,6_#48
      + y_6,4_#62 - y_8,5_#93 - y_9,5_#108 - y_10,5_#123 - y_11,5_#138
      - y_12,5_#153 - y_13,5_#168 - y_14,5_#183 - y_15,5_#198 - y_16,5_#213
      - y_17,5_#228 <= 1
Bounds
 0 <= y_2,3_#0 <= 1
 0 <= y_2,4_#1 <= 1
 0 <= y_2,5_#2 <= 1
 0 <= y_2,6_#3 <= 1
 0 <= y_2,7_#4 <= 1
 0 <= y_2,8_#5 <= 1
 0 <= y_2,9_#6 <= 1
 0 <= y_2,10_#7 <= 1
 0 <= y_2,11_#8 <= 1
 0 <= y_2,12_#9 <= 1
 0 <= y_2,13_#10 <= 1
 0 <= y_2,14_#11 <= 1
 0 <= y_2,15_#12 <= 1
 0 <= y_2,16_#13 <= 1
 0 <= y_2,17_#14 <= 1
 0 <= y_2,18_#15 <= 1
 0 <= y_3,4_#16 <= 1
 0 <= y_3,5_#17 <= 1
 0 <= y_3,6_#18 <= 1
 0 <= y_3,7_#19 <= 1
 0 <= y_3,8_#20 <= 1
 0 <= y_3,9_#21 <= 1
 0 <= y_3,10_#22 <= 1
 0 <= y_3,11_#23 <= 1
 0 <= y_3,12_#24 <= 1
 0 <= y_3,13_#25 <= 1
 0 <= y_3,14_#26 <= 1
 0 <= y_3,15_#27 <= 1
 0 <= y_3,16_#28 <= 1
 0 <= y_3,17_#29 <= 1
 0 <= y_3,18_#30 <= 1
 0 <= y_4,3_#31 <= 1
 0 <= y_4,5_#32 <= 1
 0 <= y_4,6_#33 <= 1
 0 <= y_4,7_#34 <= 1
 0 <= y_4,8_#35 <= 1
 0 <= y_4,9_#36 <= 1
 0 <= y_4,10_#37 <= 1
 0 <= y_4,11_#38 <= 1
 0 <= y_4,12_#39 <= 1
 0 <= y_4,13_#40 <= 1
 0 <= y_4,14_#41 <= 1
 0 <= y_4,15_#42 <= 1
 0 <= y_4,16_#43 <= 1
 0 <= y_4,17_#44 <= 1
 0 <= y_4,18_#45 <= 1
 0 <= y_5,3_#46 <= 1
 0 <= y_5,4_#47 <= 1
 0 <= y_5,6_#48 <= 1
 0 <= y_5,7_#49 <= 1
 0 <= y_5,8_#50 <= 1
 0 <= y_5,9_#51 <= 1
 0 <= y_5,10_#52 <= 1
 0 <= y_5,11_#53 <= 1
 0 <= y_5,12_#54 <= 1
 0 <= y_5,13_#55 <= 1
 0 <= y_5,14_#56 <= 1
 0 <= y_5,15_#57 <= 1
 0 <= y_5,16_#58 <= 1
 0 <= y_5,17_#59 <= 1
 0 <= y_5,18_#60 <= 1
 0 <= y_6,3_#61 <= 1
 0 <= y_6,4_#62 <= 1
 0 <= y_6,5_#63 <= 1
 0 <= y_6,7_#64 <= 1
 0 <= y_6,8_#65 <= 1
 0 <= y_6,9_#66 <= 1
 0 <= y_6,10_#67 <= 1
 0 <= y_6,11_#68 <= 1
 0 <= y_6,12_#69 <= 1
 0 <= y_6,13_#70 <= 1
 0 <= y_6,14_#71 <= 1
 0 <= y_6,15_#72 <= 1
 0 <= y_6,16_#73 <= 1
 0 <= y_6,17_#74 <= 1
 0 <= y_6,18_#75 <= 1
 0 <= y_7,3_#76 <= 1
 0 <= y_7,4_#77 <= 1
 0 <= y_7,5_#78 <= 1
 0 <= y_7,6_#79 <= 1
 0 <= y_7,8_#80 <= 1
 0 <= y_7,9_#81 <= 1
 0 <= y_7,10_#82 <= 1
 0 <= y_7,11_#83 <= 1
 0 <= y_7,12_#84 <= 1
 0 <= y_7,13_#85 <= 1
 0 <= y_7,14_#86 <= 1
 0 <= y_7,15_#87 <= 1
 0 <= y_7,16_#88 <= 1
 0 <= y_7,17_#89 <= 1
 0 <= y_7,18_#90 <= 1
 0 <= y_8,3_#91 <= 1
 0 <= y_8,4_#92 <= 1
 0 <= y_8,5_#93 <= 1
 0 <= y_8,6_#94 <= 1
 0 <= y_8,7_#95 <= 1
 0 <= y_8,9_#96 <= 1
 0 <= y_8,10_#97 <= 1
 0 <= y_8,11_#98 <= 1
 0 <= y_8,12_#99 <= 1
 0 <= y_8,13_#100 <= 1
 0 <= y_8,14_#101 <= 1
 0 <= y_8,15_#102 <= 1
 0 <= y_8,16_#103 <= 1
 0 <= y_8,17_#104 <= 1
 0 <= y_8,18_#105 <= 1
 0 <= y_9,3_#106 <= 1
 0 <= y_9,4_#107 <= 1
 0 <= y_9,5_#108 <= 1
 0 <= y_9,6_#109 <= 1
 0 <= y_9,7_#110 <= 1
 0 <= y_9,8_#111 <= 1
 0 <= y_9,10_#112 <= 1
 0 <= y_9,11_#113 <= 1
 0 <= y_9,12_#114 <= 1
 0 <= y_9,13_#115 <= 1
 0 <= y_9,14_#116 <= 1
 0 <= y_9,15_#117 <= 1
 0 <= y_9,16_#118 <= 1
 0 <= y_9,17_#119 <= 1
 0 <= y_9,18_#120 <= 1
 0 <= y_10,3_#121 <= 1
 0 <= y_10,4_#122 <= 1
 0 <= y_10,5_#123 <= 1
 0 <= y_10,6_#124 <= 1
 0 <= y_10,7_#125 <= 1
 0 <= y_10,8_#126 <= 1
 0 <= y_10,9_#127 <= 1
 0 <= y_10,11_#128 <= 1
 0 <= y_10,12_#129 <= 1
 0 <= y_10,13_#130 <= 1
 0 <= y_10,14_#131 <= 1
 0 <= y_10,15_#132 <= 1
 0 <= y_10,16_#133 <= 1
 0 <= y_10,17_#134 <= 1
 0 <= y_10,18_#135 <= 1
 0 <= y_11,3_#136 <= 1
 0 <= y_11,4_#137 <= 1
 0 <= y_11,5_#138 <= 1
 0 <= y_11,6_#139 <= 1
 0 <= y_11,7_#140 <= 1
 0 <= y_11,8_#141 <= 1
 0 <= y_11,9_#142 <= 1
 0 <= y_11,10_#143 <= 1
 0 <= y_11,12_#144 <= 1
 0 <= y_11,13_#145 <= 1
 0 <= y_11,14_#146 <= 1
 0 <= y_11,15_#147 <= 1
 0 <= y_11,16_#148 <= 1
 0 <= y_11,17_#149 <= 1
 0 <= y_11,18_#150 <= 1
 0 <= y_12,3_#151 <= 1
 0 <= y_12,4_#152 <= 1
 0 <= y_12,5_#153 <= 1
 0 <= y_12,6_#154 <= 1
 0 <= y_12,7_#155 <= 1
 0 <= y_12,8_#156 <= 1
 0 <= y_12,9_#157 <= 1
 0 <= y_12,10_#158 <= 1
 0 <= y_12,11_#159 <= 1
 0 <= y_12,13_#160 <= 1
 0 <= y_12,14_#161 <= 1
 0 <= y_12,15_#162 <= 1
 0 <= y_12,16_#163 <= 1
 0 <= y_12,17_#164 <= 1
 0 <= y_12,18_#165 <= 1
 0 <= y_13,3_#166 <= 1
 0 <= y_13,4_#167 <= 1
 0 <= y_13,5_#168 <= 1
 0 <= y_13,6_#169 <= 1
 0 <= y_13,7_#170 <= 1
 0 <= y_13,8_#171 <= 1
 0 <= y_13,9_#172 <= 1
 0 <= y_13,10_#173 <= 1
 0 <= y_13,11_#174 <= 1
 0 <= y_13,12_#175 <= 1
 0 <= y_13,14_#176 <= 1
 0 <= y_13,15_#177 <= 1
 0 <= y_13,16_#178 <= 1
 0 <= y_13,17_#179 <= 1
 0 <= y_13,18_#180 <= 1
 0 <= y_14,3_#181 <= 1
 0 <= y_14,4_#182 <= 1
 0 <= y_14,5_#183 <= 1
 0 <= y_14,6_#184 <= 1
 0 <= y_14,7_#185 <= 1
 0 <= y_14,8_#186 <= 1
 0 <= y_14,9_#187 <= 1
 0 <= y_14,10_#188 <= 1
 0 <= y_14,11_#189 <= 1
 0 <= y_14,12_#190 <= 1
 0 <= y_14,13_#191 <= 1
 0 <= y_14,15_#192 <= 1
 0 <= y_14,16_#193 <= 1
 0 <= y_14,17_#194 <= 1
 0 <= y_14,18_#195 <= 1
 0 <= y_15,3_#196 <= 1
 0 <= y_15,4_#197 <= 1
 0 <= y_15,5_#198 <= 1
 0 <= y_15,6_#199 <= 1
 0 <= y_15,7_#200 <= 1
 0 <= y_15,8_#201 <= 1
 0 <= y_15,9_#202 <= 1
 0 <= y_15,10_#203 <= 1
 0 <= y_15,11_#204 <= 1
 0 <= y_15,12_#205 <= 1
 0 <= y_15,13_#206 <= 1
 0 <= y_15,14_#207 <= 1
 0 <= y_15,16_#208 <= 1
 0 <= y_15,17_#209 <= 1
 0 <= y_15,18_#210 <= 1
 0 <= y_16,3_#211 <= 1
 0 <= y_16,4_#212 <= 1
 0 <= y_16,5_#213 <= 1
 0 <= y_16,6_#214 <= 1
 0 <= y_16,7_#215 <= 1
 0 <= y_16,8_#216 <= 1
 0 <= y_16,9_#217 <= 1
 0 <= y_16,10_#218 <= 1
 0 <= y_16,11_#219 <= 1
 0 <= y_16,12_#220 <= 1
 0 <= y_16,13_#221 <= 1
 0 <= y_16,14_#222 <= 1
 0 <= y_16,15_#223 <= 1
 0 <= y_16,17_#224 <= 1
 0 <= y_16,18_#225 <= 1
 0 <= y_17,3_#226 <= 1
 0 <= y_17,4_#227 <= 1
 0 <= y_17,5_#228 <= 1
 0 <= y_17,6_#229 <= 1
 0 <= y_17,7_#230 <= 1
 0 <= y_17,8_#231 <= 1
 0 <= y_17,9_#232 <= 1
 0 <= y_17,10_#233 <= 1
 0 <= y_17,11_#234 <= 1
 0 <= y_17,12_#235 <= 1
 0 <= y_17,13_#236 <= 1
 0 <= y_17,14_#237 <= 1
 0 <= y_17,15_#238 <= 1
 0 <= y_17,16_#239 <= 1
 0 <= y_17,18_#240 <= 1
End
